feasible solution found by trivial heuristic after 0.1 seconds, objective value 0.000000e+00
presolving:
(round 1, fast)       10828 del vars, 884 del conss, 0 add conss, 292 chg bounds, 0 chg sides, 0 chg coeffs, 0 upgd conss, 0 impls, 11760 clqs
   (0.3s) running MILP presolver
   (0.5s) MILP presolver (4 rounds): 0 aggregations, 0 fixings, 146 bound changes
(round 2, medium)     10828 del vars, 884 del conss, 0 add conss, 438 chg bounds, 0 chg sides, 0 chg coeffs, 0 upgd conss, 0 impls, 11760 clqs
(round 3, exhaustive) 10828 del vars, 1403 del conss, 0 add conss, 438 chg bounds, 460 chg sides, 0 chg coeffs, 0 upgd conss, 0 impls, 11760 clqs
(round 4, exhaustive) 10828 del vars, 1450 del conss, 0 add conss, 438 chg bounds, 507 chg sides, 0 chg coeffs, 0 upgd conss, 0 impls, 11760 clqs
(round 5, exhaustive) 10828 del vars, 1451 del conss, 0 add conss, 438 chg bounds, 508 chg sides, 0 chg coeffs, 11253 upgd conss, 0 impls, 11760 clqs
(round 6, medium)     10828 del vars, 1457 del conss, 25 add conss, 438 chg bounds, 534 chg sides, 95 chg coeffs, 11253 upgd conss, 0 impls, 11778 clqs
(round 7, exhaustive) 10828 del vars, 1665 del conss, 25 add conss, 438 chg bounds, 534 chg sides, 95 chg coeffs, 11253 upgd conss, 0 impls, 11778 clqs
(round 8, exhaustive) 10828 del vars, 1698 del conss, 25 add conss, 438 chg bounds, 534 chg sides, 95 chg coeffs, 11253 upgd conss, 0 impls, 11778 clqs
   (1.1s) probing: 51/246 (20.7%) - 0 fixings, 0 aggregations, 0 implications, 0 bound changes
   (1.1s) probing aborted: 50/50 successive totally useless probings
   (1.2s) symmetry computation started: requiring (bin +, int -, cont +), (fixed: bin -, int +, cont -)
   (1.2s) no symmetry present
   (1.2s) symmetry computation started: requiring (bin +, int +, cont +), (fixed: bin -, int -, cont -)
   (1.3s) no symmetry present
presolving (9 rounds: 9 fast, 8 medium, 6 exhaustive):
 10828 deleted vars, 1698 deleted constraints, 25 added constraints, 438 tightened bounds, 0 added holes, 534 changed sides, 95 changed coefficients
 0 implications, 11778 cliques
presolved problem has 14992 variables (246 bin, 146 int, 0 impl, 14600 cont) and 11423 constraints
  11031 constraints of type <setppc>
    392 constraints of type <linear>
Presolving Time: 1.22

 time | node  | left  |LP iter|LP it/n|mem/heur|mdpt |vars |cons |rows |cuts |sepa|confs|strbr|  dualbound   | primalbound  |  gap   | compl. 
t 1.3s|     1 |     0 |     0 |     - | trivial|   0 |  14k|  11k|   0 |   0 |  0 |   0 |   0 | 8.204696e+06 | 0.000000e+00 |    Inf | unknown
  3.5s|     1 |     0 |  5049 |     - |   235M |   0 |  14k|  11k|  11k|   0 |  0 |   0 |   0 | 1.046836e+06 | 0.000000e+00 |    Inf | unknown
  3.8s|     1 |     0 |  5253 |     - |   239M |   0 |  14k|  11k|  11k|   1 |  1 |   0 |   0 | 1.039547e+06 | 0.000000e+00 |    Inf | unknown
  4.1s|     1 |     0 |  5465 |     - |   242M |   0 |  14k|  11k|  11k|   2 |  2 |   0 |   0 | 1.036019e+06 | 0.000000e+00 |    Inf | unknown
  4.3s|     1 |     0 |  5622 |     - |   244M |   0 |  14k|  11k|  11k|   3 |  3 |   1 |   0 | 1.034351e+06 | 0.000000e+00 |    Inf | unknown
  4.5s|     1 |     0 |  5693 |     - |   246M |   0 |  14k|  11k|  11k|   4 |  4 |   1 |   0 | 1.033773e+06 | 0.000000e+00 |    Inf | unknown
  4.8s|     1 |     0 |  5905 |     - |   249M |   0 |  14k|  11k|  11k|   5 |  5 |   1 |   0 | 1.033087e+06 | 0.000000e+00 |    Inf | unknown
  5.0s|     1 |     0 |  6087 |     - |   253M |   0 |  14k|  11k|  11k|   6 |  6 |   4 |   0 | 1.032277e+06 | 0.000000e+00 |    Inf | unknown
  5.3s|     1 |     0 |  6187 |     - |   257M |   0 |  14k|  11k|  11k|   7 |  7 |   4 |   0 | 1.031831e+06 | 0.000000e+00 |    Inf | unknown
  5.5s|     1 |     0 |  6333 |     - |   262M |   0 |  14k|  11k|  11k|   8 |  8 |   4 |   0 | 1.031508e+06 | 0.000000e+00 |    Inf | unknown
  5.7s|     1 |     0 |  6517 |     - |   269M |   0 |  14k|  11k|  11k|   9 |  9 |   4 |   0 | 1.031293e+06 | 0.000000e+00 |    Inf | unknown
  6.0s|     1 |     0 |  6689 |     - |   270M |   0 |  14k|  11k|  11k|  10 | 10 |   8 |   0 | 1.031194e+06 | 0.000000e+00 |    Inf | unknown
  6.3s|     1 |     0 |  6786 |     - |   272M |   0 |  14k|  11k|  11k|  11 | 11 |   8 |   0 | 1.031142e+06 | 0.000000e+00 |    Inf | unknown
  6.4s|     1 |     0 |  6927 |     - |   273M |   0 |  14k|  11k|  11k|  12 | 12 |   8 |   0 | 1.031003e+06 | 0.000000e+00 |    Inf | unknown
  6.7s|     1 |     0 |  7068 |     - |   274M |   0 |  14k|  11k|  11k|  13 | 13 |   9 |   0 | 1.030649e+06 | 0.000000e+00 |    Inf | unknown
 time | node  | left  |LP iter|LP it/n|mem/heur|mdpt |vars |cons |rows |cuts |sepa|confs|strbr|  dualbound   | primalbound  |  gap   | compl. 
  6.9s|     1 |     0 |  7163 |     - |   276M |   0 |  14k|  11k|  11k|  14 | 14 |   9 |   0 | 1.030457e+06 | 0.000000e+00 |    Inf | unknown
  7.0s|     1 |     0 |  7253 |     - |   277M |   0 |  14k|  11k|  11k|  15 | 15 |   9 |   0 | 1.030165e+06 | 0.000000e+00 |    Inf | unknown
  7.2s|     1 |     0 |  7322 |     - |   278M |   0 |  14k|  11k|  11k|  16 | 16 |  11 |   0 | 1.030111e+06 | 0.000000e+00 |    Inf | unknown
  7.4s|     1 |     0 |  7365 |     - |   280M |   0 |  14k|  11k|  11k|  17 | 17 |  11 |   0 | 1.030070e+06 | 0.000000e+00 |    Inf | unknown
  7.6s|     1 |     0 |  7386 |     - |   281M |   0 |  14k|  11k|  11k|  18 | 18 |  12 |   0 | 1.030055e+06 | 0.000000e+00 |    Inf | unknown
  7.8s|     1 |     0 |  7462 |     - |   282M |   0 |  14k|  11k|  11k|  19 | 19 |  12 |   0 | 1.029806e+06 | 0.000000e+00 |    Inf | unknown
  8.0s|     1 |     0 |  7520 |     - |   283M |   0 |  14k|  11k|  11k|  21 | 20 |  16 |   0 | 1.029668e+06 | 0.000000e+00 |    Inf | unknown
  8.2s|     1 |     0 |  7588 |     - |   283M |   0 |  14k|  11k|  11k|  23 | 21 |  19 |   0 | 1.029460e+06 | 0.000000e+00 |    Inf | unknown
  8.4s|     1 |     0 |  7621 |     - |   283M |   0 |  14k|  11k|  11k|  24 | 22 |  19 |   0 | 1.029369e+06 | 0.000000e+00 |    Inf | unknown
  8.6s|     1 |     0 |  7647 |     - |   283M |   0 |  14k|  11k|  11k|  25 | 23 |  19 |   0 | 1.029334e+06 | 0.000000e+00 |    Inf | unknown
  8.8s|     1 |     0 |  7681 |     - |   283M |   0 |  14k|  11k|  11k|  26 | 24 |  19 |   0 | 1.029255e+06 | 0.000000e+00 |    Inf | unknown
  9.0s|     1 |     0 |  7721 |     - |   283M |   0 |  14k|  11k|  11k|  27 | 25 |  19 |   0 | 1.029147e+06 | 0.000000e+00 |    Inf | unknown
  9.2s|     1 |     0 |  7761 |     - |   284M |   0 |  14k|  11k|  11k|  28 | 26 |  22 |   0 | 1.029092e+06 | 0.000000e+00 |    Inf | unknown
  9.4s|     1 |     0 |  7781 |     - |   284M |   0 |  14k|  11k|  11k|  29 | 27 |  24 |   0 | 1.029050e+06 | 0.000000e+00 |    Inf | unknown
  9.5s|     1 |     0 |  7790 |     - |   284M |   0 |  14k|  11k|  11k|  30 | 28 |  24 |   0 | 1.029042e+06 | 0.000000e+00 |    Inf | unknown
 time | node  | left  |LP iter|LP it/n|mem/heur|mdpt |vars |cons |rows |cuts |sepa|confs|strbr|  dualbound   | primalbound  |  gap   | compl. 
  9.8s|     1 |     0 |  7807 |     - |   284M |   0 |  14k|  11k|  11k|  31 | 29 |  28 |   0 | 1.029016e+06 | 0.000000e+00 |    Inf | unknown
  9.9s|     1 |     0 |  7825 |     - |   284M |   0 |  14k|  11k|  11k|  32 | 30 |  29 |   0 | 1.028991e+06 | 0.000000e+00 |    Inf | unknown
 10.1s|     1 |     0 |  7852 |     - |   284M |   0 |  14k|  11k|  11k|  33 | 31 |  29 |   0 | 1.028956e+06 | 0.000000e+00 |    Inf | unknown
 10.3s|     1 |     0 |  7881 |     - |   284M |   0 |  14k|  11k|  11k|  34 | 32 |  29 |   0 | 1.028920e+06 | 0.000000e+00 |    Inf | unknown
 10.4s|     1 |     0 |  7894 |     - |   284M |   0 |  14k|  11k|  11k|  35 | 33 |  29 |   0 | 1.028911e+06 | 0.000000e+00 |    Inf | unknown
 10.6s|     1 |     0 |  7908 |     - |   285M |   0 |  14k|  11k|  11k|  36 | 34 |  29 |   0 | 1.028892e+06 | 0.000000e+00 |    Inf | unknown
 10.8s|     1 |     0 |  7922 |     - |   285M |   0 |  14k|  11k|  11k|  37 | 35 |  29 |   0 | 1.028875e+06 | 0.000000e+00 |    Inf | unknown
d12.6s|     1 |     0 | 10123 |     - |farkasdi|   0 |  14k|  11k|  11k|   0 | 35 |  29 |   0 | 1.028875e+06 | 8.284792e+05 |  24.19%| unknown
d15.4s|     1 |     0 | 13548 |     - |conflict|   0 |  14k|  11k|  11k|   0 | 35 |  29 |   0 | 1.028875e+06 | 8.421601e+05 |  22.17%| unknown
 21.3s|     1 |     0 | 13560 |     - |   288M |   0 |  14k|  11k|  11k|  37 | 35 |  29 |   0 | 1.028875e+06 | 8.421601e+05 |  22.17%| unknown
 21.4s|     1 |     0 | 13560 |     - |   288M |   0 |  14k|  11k|  11k|  37 | 35 |  30 |   0 | 1.028875e+06 | 8.421601e+05 |  22.17%| unknown
 21.6s|     1 |     0 | 13568 |     - |   288M |   0 |  14k|  11k|  11k|  38 | 36 |  30 |   0 | 1.028868e+06 | 8.421601e+05 |  22.17%| unknown
 21.8s|     1 |     0 | 13577 |     - |   288M |   0 |  14k|  11k|  11k|  39 | 37 |  33 |   0 | 1.028861e+06 | 8.421601e+05 |  22.17%| unknown
 55.1s|     1 |     2 | 13577 |     - |   288M |   0 |  14k|  11k|  11k|  39 | 37 |  33 |  28 | 1.017326e+06 | 8.421601e+05 |  20.80%| unknown
*57.6s|     2 |     1 | 14505 |6566.0 |strongbr|   1 |  14k|  11k|  11k|  39 |  2 |  33 |  30 | 1.017326e+06 | 8.911538e+05 |  14.16%| unknown

SCIP Status        : problem is solved [optimal solution found]
Solving Time (sec) : 95.42
Solving Nodes      : 5
Primal Bound       : +8.91153752982114e+05 (6 solutions)
Dual Bound         : +8.91153752982114e+05
Gap                : 0.00 %
Solve Status: optimal
Solve Time: 95.46 seconds
